50 8
844 636
793 680
608 711
829 508
687 327
573 135
749 212
825 732
410 738
477 242
742 675
745 639
684 798
868 780
373 789
861 681
375 396
293 256
828 694
834 910
726 659
862 483
866 843
695 650
702 384
75 509
601 301
935 570
216 144
802 440
813 925
502 719
834 855
289 194
678 79
825 395
197 443
385 339
168 186
511 385
774 626
70 448
850 280
710 807
520 575
918 926
773 778
228 140
674 426
529 230
